NAME: 7x7 Grid TSP
TYPE: TSP
DIMENSION: 49
EDGE_WEIGHT_TYPE: EUC_2D
NODE_COORD_SECTION
1  0  0
2  1  0
3  2  0
4  3  0
5  4  0
6  5  0
7  6  0
8  0  1
9  1  1
10  2  1
11  3  1
12  4  1
13  5  1
14  6  1
15  0  2
16  1  2
17  2  2
18  3  2
19  4  2
20  5  2
21  6  2
22  0  3
23  1  3
24  2  3
25  3  3
26  4  3
27  5  3
28  6  3
29  0  4
30  1  4
31  2  4
32  3  4
33  4  4
34  5  4
35  6  4
36  0  5
37  1  5
38  2  5
39  3  5
40  4  5
41  5  5
42  6  5
43  0  6
44  1  6
45  2  6
46  3  6
47  4  6
48  5  6
49  6  6
EOF